benchmarks_CP/INST_36x36/45/inst36x36_45_70.dzn
S=6;
start=[|
-1,	10,	-1,	12,	-1,	33,	-1,	-1,	-1,	7,	-1,	-1,	26,	-1,	3,	-1,	4,	34,	-1,	-1,	36,	19,	-1,	30,	-1,	-1,	32,	-1,	-1,	-1,	1,	14,	-1,	27,	11,	28|
-1,	-1,	3,	-1,	15,	-1,	-1,	21,	27,	14,	28,	-1,	-1,	-1,	-1,	-1,	22,	-1,	-1,	-1,	29,	-1,	-1,	6,	-1,	-1,	-1,	-1,	33,	-1,	32,	-1,	-1,	-1,	-1,	34|
-1,	36,	19,	13,	6,	-1,	8,	-1,	-1,	-1,	-1,	-1,	7,	-1,	-1,	-1,	-1,	31,	-1,	-1,	-1,	28,	3,	32,	10,	-1,	26,	-1,	-1,	35,	-1,	-1,	-1,	25,	22,	-1|
27,	-1,	17,	1,	9,	-1,	10,	-1,	3,	-1,	-1,	32,	25,	24,	-1,	20,	-1,	-1,	-1,	-1,	4,	7,	14,	2,	11,	-1,	-1,	-1,	-1,	-1,	-1,	-1,	-1,	-1,	-1,	-1|
28,	-1,	-1,	-1,	-1,	-1,	-1,	23,	-1,	6,	34,	11,	21,	-1,	-1,	-1,	19,	-1,	5,	18,	-1,	-1,	-1,	-1,	-1,	-1,	36,	17,	-1,	-1,	-1,	35,	-1,	31,	-1,	7|
-1,	21,	20,	-1,	7,	-1,	31,	-1,	-1,	-1,	-1,	-1,	-1,	-1,	-1,	1,	-1,	-1,	-1,	-1,	8,	16,	-1,	27,	-1,	4,	-1,	-1,	-1,	-1,	2,	-1,	-1,	24,	-1,	-1|
-1,	-1,	27,	-1,	5,	-1,	-1,	31,	-1,	-1,	-1,	-1,	-1,	18,	-1,	32,	17,	-1,	10,	36,	19,	-1,	8,	22,	1,	-1,	35,	25,	23,	-1,	20,	-1,	28,	2,	-1,	11|
34,	6,	22,	29,	-1,	1,	27,	-1,	2,	-1,	14,	-1,	12,	-1,	-1,	-1,	16,	-1,	28,	-1,	13,	21,	25,	33,	-1,	-1,	9,	4,	-1,	11,	3,	-1,	-1,	-1,	-1,	-1|
-1,	11,	-1,	-1,	-1,	-1,	21,	-1,	33,	-1,	18,	-1,	-1,	-1,	-1,	26,	24,	-1,	-1,	1,	2,	31,	-1,	-1,	16,	7,	-1,	-1,	-1,	-1,	-1,	-1,	-1,	8,	35,	32|
-1,	23,	-1,	32,	-1,	30,	-1,	36,	-1,	24,	-1,	-1,	-1,	1,	-1,	-1,	-1,	-1,	16,	12,	34,	4,	-1,	-1,	-1,	29,	19,	-1,	-1,	33,	25,	18,	-1,	13,	-1,	-1|
18,	35,	25,	19,	31,	-1,	-1,	-1,	-1,	17,	-1,	-1,	2,	-1,	-1,	-1,	10,	-1,	-1,	9,	30,	-1,	7,	-1,	6,	24,	20,	-1,	27,	-1,	-1,	-1,	36,	-1,	-1,	15|
33,	-1,	-1,	8,	17,	-1,	7,	10,	-1,	11,	13,	-1,	-1,	28,	-1,	29,	35,	25,	-1,	15,	32,	-1,	-1,	-1,	-1,	-1,	2,	-1,	22,	30,	-1,	-1,	1,	16,	-1,	12|
10,	-1,	-1,	16,	-1,	-1,	3,	18,	1,	8,	7,	-1,	-1,	-1,	24,	13,	-1,	4,	-1,	6,	-1,	-1,	32,	28,	23,	5,	-1,	-1,	-1,	-1,	33,	-1,	21,	34,	12,	30|
-1,	-1,	4,	-1,	8,	17,	33,	27,	-1,	-1,	-1,	10,	-1,	-1,	-1,	31,	-1,	29,	30,	-1,	12,	-1,	-1,	-1,	34,	35,	-1,	18,	26,	28,	-1,	16,	5,	-1,	25,	3|
-1,	-1,	-1,	-1,	-1,	-1,	15,	-1,	30,	31,	-1,	-1,	22,	-1,	-1,	14,	-1,	-1,	-1,	17,	-1,	-1,	-1,	-1,	12,	-1,	-1,	-1,	21,	29,	-1,	-1,	-1,	-1,	26,	20|
-1,	28,	-1,	11,	21,	25,	26,	12,	13,	36,	-1,	4,	-1,	35,	7,	16,	3,	-1,	22,	34,	24,	-1,	-1,	18,	32,	-1,	33,	8,	2,	27,	-1,	-1,	29,	-1,	-1,	-1|
20,	1,	18,	-1,	-1,	-1,	-1,	5,	35,	-1,	21,	-1,	34,	12,	30,	-1,	-1,	11,	-1,	19,	-1,	-1,	16,	-1,	-1,	-1,	7,	-1,	31,	-1,	14,	-1,	-1,	15,	-1,	13|
-1,	-1,	14,	-1,	-1,	-1,	19,	32,	9,	34,	-1,	-1,	-1,	5,	25,	-1,	18,	23,	-1,	-1,	26,	13,	31,	1,	15,	30,	-1,	16,	24,	4,	10,	-1,	27,	35,	-1,	-1|
-1,	-1,	-1,	-1,	-1,	35,	-1,	9,	17,	-1,	27,	15,	19,	-1,	-1,	-1,	-1,	21,	33,	-1,	-1,	-1,	24,	-1,	22,	-1,	4,	20,	6,	-1,	-1,	-1,	10,	-1,	-1,	-1|
-1,	18,	13,	-1,	-1,	-1,	36,	19,	-1,	32,	33,	7,	-1,	-1,	-1,	3,	2,	-1,	1,	-1,	-1,	-1,	-1,	-1,	-1,	-1,	-1,	21,	-1,	5,	15,	-1,	-1,	-1,	-1,	-1|
-1,	30,	23,	6,	29,	31,	20,	26,	21,	12,	8,	-1,	28,	-1,	-1,	-1,	-1,	32,	-1,	-1,	15,	11,	-1,	-1,	13,	-1,	-1,	-1,	18,	-1,	35,	-1,	-1,	-1,	36,	-1|
-1,	-1,	-1,	-1,	25,	10,	6,	14,	-1,	-1,	5,	-1,	-1,	30,	-1,	7,	33,	-1,	-1,	32,	21,	-1,	4,	20,	-1,	17,	-1,	24,	-1,	-1,	-1,	34,	19,	-1,	18,	8|
19,	-1,	34,	-1,	-1,	28,	-1,	-1,	-1,	-1,	16,	-1,	-1,	-1,	-1,	-1,	-1,	-1,	-1,	-1,	14,	-1,	2,	-1,	-1,	26,	-1,	-1,	8,	9,	22,	-1,	32,	-1,	-1,	1|
21,	-1,	-1,	-1,	24,	22,	29,	1,	-1,	-1,	10,	-1,	-1,	9,	34,	5,	-1,	-1,	19,	3,	-1,	-1,	-1,	-1,	-1,	-1,	-1,	-1,	7,	-1,	12,	17,	-1,	-1,	28,	-1|
25,	-1,	7,	-1,	-1,	-1,	32,	3,	-1,	-1,	36,	33,	-1,	-1,	-1,	15,	5,	-1,	-1,	23,	-1,	-1,	-1,	-1,	-1,	8,	-1,	28,	29,	10,	26,	13,	31,	-1,	-1,	18|
-1,	-1,	-1,	-1,	-1,	-1,	11,	7,	6,	-1,	29,	-1,	13,	-1,	-1,	-1,	20,	-1,	-1,	-1,	-1,	-1,	21,	-1,	-1,	12,	-1,	-1,	-1,	34,	-1,	-1,	-1,	19,	1,	24|
-1,	-1,	-1,	-1,	-1,	-1,	1,	30,	-1,	9,	-1,	-1,	14,	-1,	29,	-1,	26,	-1,	-1,	-1,	28,	15,	-1,	11,	-1,	23,	21,	32,	13,	25,	-1,	4,	16,	3,	-1,	-1|
-1,	34,	-1,	-1,	-1,	29,	13,	2,	5,	27,	-1,	-1,	33,	6,	31,	9,	-1,	-1,	26,	-1,	-1,	-1,	-1,	19,	36,	-1,	17,	7,	-1,	-1,	8,	15,	-1,	32,	10,	25|
-1,	13,	-1,	22,	-1,	-1,	-1,	-1,	-1,	-1,	-1,	-1,	10,	-1,	32,	-1,	-1,	1,	9,	25,	-1,	-1,	36,	29,	-1,	-1,	-1,	35,	-1,	26,	-1,	-1,	-1,	11,	5,	-1|
5,	-1,	-1,	-1,	-1,	-1,	-1,	-1,	-1,	-1,	-1,	26,	-1,	-1,	-1,	4,	-1,	-1,	13,	8,	-1,	-1,	-1,	10,	-1,	-1,	6,	-1,	-1,	-1,	-1,	-1,	-1,	-1,	-1,	23|
3,	-1,	-1,	23,	-1,	-1,	-1,	-1,	28,	-1,	-1,	-1,	-1,	34,	-1,	-1,	-1,	-1,	24,	33,	1,	-1,	13,	-1,	-1,	-1,	-1,	-1,	-1,	-1,	5,	27,	-1,	-1,	-1,	31|
-1,	-1,	-1,	34,	-1,	19,	2,	-1,	-1,	16,	-1,	36,	35,	-1,	-1,	-1,	-1,	27,	8,	26,	-1,	-1,	22,	-1,	29,	31,	-1,	23,	-1,	17,	-1,	-1,	-1,	-1,	9,	4|
22,	8,	-1,	-1,	-1,	24,	-1,	-1,	7,	19,	-1,	-1,	16,	-1,	-1,	-1,	-1,	30,	25,	28,	3,	2,	17,	36,	-1,	15,	5,	11,	-1,	20,	6,	26,	-1,	1,	32,	-1|
-1,	9,	-1,	-1,	-1,	-1,	23,	8,	22,	33,	26,	-1,	-1,	3,	-1,	10,	15,	-1,	-1,	30,	-1,	32,	35,	-1,	-1,	21,	27,	1,	-1,	7,	-1,	25,	14,	28,	13,	36|
32,	17,	-1,	27,	-1,	15,	-1,	25,	-1,	30,	9,	20,	-1,	21,	-1,	8,	-1,	26,	-1,	-1,	-1,	-1,	-1,	7,	-1,	16,	34,	-1,	35,	2,	-1,	22,	23,	-1,	3,	-1|
26,	-1,	-1,	-1,	36,	-1,	17,	11,	32,	13,	-1,	18,	24,	4,	-1,	-1,	-1,	5,	-1,	-1,	27,	-1,	34,	23,	-1,	-1,	-1,	-1,	28,	3,	-1,	-1,	7,	21,	16,	19|];
